benchmarks_vrp/CMT11/min_c/CMT11_2.vrp
NAME: CMT11_2
TYPE: CVRP
COMMENT: 1042.11 - Cluster Nr.2
DIMENSION: 15
CAPACITY: 200
EDGE_WEIGHT_TYPE: EUC_2D
NODE_COORD_TYPE: TWOD_COORDS
NODE_COORD_SECTION: 
12 46 89
15 46 89
2 50 85
11 50 80
8 35 87
1 37 83
4 50 88
5 35 85
9 48 83
10 44 86
13 10 45
7 46 83
14 54 86
6 46 87
3 54 90
DEPOT_SECTION: 
13
-1
DEMAND_SECTION: 
12 35
4 7
8 16
7 9
1 17
11 13
13 0
15 13
3 10
9 5
2 28
10 7
6 11
14 3
5 14
EOF
