benchmarks_vrp/CMT11/min_c/CMT11_2.tour
NAME: CMT11_2 solution
TYPE: TOUR
TOUR_SECTION:
13 5 8 1 10 6 12 15 4 3 14 2 9 7 11 -1
-1
EOF